sat
(:card2bv-rewrites        85
 :max-memory              38.43
 :memory                  20.41
 :num-allocs              482894944
 :rlimit-count            2388005
 :sat-backjumps           923
 :sat-conflicts           923
 :sat-decisions           3611
 :sat-del-clause          42642
 :sat-elim-bool-vars-res  7994
 :sat-elim-clauses        2177
 :sat-elim-literals       1649
 :sat-minimized-lits      3349
 :sat-mk-clause-2ary      32344
 :sat-mk-clause-3ary      10656
 :sat-mk-clause-nary      69977
 :sat-mk-var              18732
 :sat-probing-assigned    359
 :sat-propagations-2ary   614113
 :sat-propagations-nary   739713
 :sat-restarts            32
 :sat-scc-elim-binary     119
 :sat-scc-elim-vars       2
 :sat-subs-resolution     313
 :sat-subs-resolution-dyn 169
 :sat-subsumed            8880
 :sat-units               1022
 :time                    0.58
 :total-time              0.59)
